
Gurobi 11.0.3 (linux64) logging started Sun Nov 24 10:00:03 2024

Set parameter LogFile to value "/home/yihong/Coding/OR_SUC/SUC_results_bigM100000_thread4/case24_ieee_rts_theta0.5_epsilon0.025_gurobi_seed1340000_num_gen100_N_WDR100_load_scaling_factor1_proposed_T24quadra_cost.txt"
Set parameter TimeLimit to value 3600
Gurobi Optimizer version 11.0.3 build v11.0.3rc0 (linux64 - "Ubuntu 20.04.6 LTS")

CPU model: AMD EPYC 7532 32-Core Processor, instruction set [SSE2|AVX|AVX2]
Thread count: 64 physical cores, 128 logical processors, using up to 4 threads

Optimize a model with 51942 rows, 29861 columns and 708794 nonzeros
Model fingerprint: 0x20ade96a
Model has 2400 quadratic constraints
Variable types: 27461 continuous, 2400 integer (2400 binary)
Coefficient statistics:
  Matrix range     [3e-04, 3e+03]
  QMatrix range    [2e-03, 8e-03]
  QLMatrix range   [5e-02, 6e+01]
  Objective range  [1e+00, 1e+00]
  Bounds range     [1e+00, 1e+00]
  RHS range        [1e+00, 9e+03]
Presolve removed 42125 rows and 12937 columns
Presolve time: 0.25s
Presolved: 9817 rows, 16924 columns, 61216 nonzeros
Presolved model has 2400 quadratic constraint(s)
Variable types: 14524 continuous, 2400 integer (2400 binary)

Root relaxation: objective 7.795539e+04, 8093 iterations, 0.19 seconds (0.26 work units)

    Nodes    |    Current Node    |     Objective Bounds      |     Work
 Expl Unexpl |  Obj  Depth IntInf | Incumbent    BestBd   Gap | It/Node Time

H    0     0                    705657.02481 77955.3877  89.0%     -    0s
*    0     0               0    705657.02481 77955.3877  89.0%     -    0s
     0     0 468335.905    0  584 705657.025 468335.905  33.6%     -    1s
     0     0 684218.819    0  223 705657.025 684218.819  3.04%     -    1s
     0     0 684292.746    0   96 705657.025 684292.746  3.03%     -    1s
     0     0 684398.227    0   96 705657.025 684398.227  3.01%     -    1s
     0     0 684400.131    0   96 705657.025 684400.131  3.01%     -    1s
     0     0 684400.131    0   96 705657.025 684400.131  3.01%     -    1s
     0     0 684400.532    0   96 705657.025 684400.532  3.01%     -    1s
     0     2 684400.532    0   96 705657.025 684400.532  3.01%     -    3s
    53    69 684499.033   14   86 705657.025 684427.475  3.01%  46.8    5s
H  126   202                    685417.75108 684445.907  0.14%  46.7    6s
*  126   202              53    685417.75108 684445.907  0.14%  46.7    6s
   479   416 684876.020   35   96 685417.751 684456.198  0.14%  30.0   12s
   492   425 684822.634   47   34 685417.751 684456.198  0.14%  29.2   15s
   625   535 684736.536   30   26 685417.751 684456.198  0.14%  65.1   20s
H  898   547                    684530.84636 684456.198  0.01%  72.0   23s
*  898   547              45    684530.84636 684456.198  0.01%  72.0   23s
H  900   526                    684530.70267 684456.198  0.01%  71.9   24s
*  900   526              46    684530.70267 684456.198  0.01%  71.9   24s

Cutting planes:
  Gomory: 1
  Implied bound: 61
  MIR: 41
  Flow cover: 17
  RLT: 53
  Relax-and-lift: 1

Explored 945 nodes (88430 simplex iterations) in 24.89 seconds (31.22 work units)
Thread count was 4 (of 128 available processors)

Solution count 5: 684531 684531 684531 ... 705657

Optimal solution found (tolerance 1.00e-03)
Warning: max constraint violation (3.7846e-08) exceeds tolerance
Best objective 6.845307026720e+05, best bound 6.844561975141e+05, gap 0.0109%
